benchmark/results/graph__10-1000-0.10-03_12/graph__10-1000-0.10-03_12_QuintonOs_Benders_aux.lp
\ This file has been generated by DOcplex
\ ENCODING=ISO-8859-1
\Problem name: Quinton Bounded Benders_auxiliary_sub

Minimize
 obj: 0.001270469516 pi_nr_a0 + 0.001531393568 pi_nr_a1
      + 0.001488092068 pi_nr_a2 + 0.001036935883 pi_nr_a3
      + 0.000809676634 pi_nr_a4 + 0.001404500548 pi_nr_a5
      + 0.000945711292 pi_nr_a6 + 0.002728506547 pi_nr_a7
      + 0.001739130435 pi_nr_a8 + 0.000974658869 pi_nr_a9 + pi_p_a4_a5
      + pi_p_a4_a7 + pi_p_a8_a0 + 1280.653320306301 pi_d_a0_a1_proc_2
      + 1602.901524732521 pi_d_a0_a1_proc_1
      + 2271.128748693671 pi_d_a0_a1_proc_0
      + 1255.864257817972 pi_d_a1_a0_proc_2
      + 1578.112462244192 pi_d_a1_a0_proc_1
      + 2246.339686205342 pi_d_a1_a0_proc_0
      + 2556.710532396518 pi_d_a0_a2_proc_2
      + 1599.952715677836 pi_d_a0_a2_proc_1 + 989.195898998590 pi_d_a0_a2_proc_0
      + 2537.804434347889 pi_d_a2_a0_proc_2
      + 1581.046617629207 pi_d_a2_a0_proc_1 + 970.289800949961 pi_d_a2_a0_proc_0
      + 1595.005062903886 pi_d_a0_a3_proc_1 + 994.067815269192 pi_d_a0_a3_proc_0
      + 1576.173395668672 pi_d_a3_a0_proc_1 + 975.236148033978 pi_d_a3_a0_proc_0
      + 1587.457296681939 pi_d_a0_a4_proc_2
      + 1958.416566105252 pi_d_a0_a4_proc_0
      + 1568.576440406391 pi_d_a4_a0_proc_2
      + 1939.535709829704 pi_d_a4_a0_proc_0
      + 1263.435470154223 pi_d_a0_a5_proc_1
      + 1281.878698855493 pi_d_a0_a5_proc_0
      + 1288.362512082370 pi_d_a5_a0_proc_1
      + 1306.805740783641 pi_d_a5_a0_proc_0
      + 2258.789886629314 pi_d_a0_a6_proc_2
      + 1595.324101605634 pi_d_a0_a6_proc_1
      + 1300.671503703862 pi_d_a0_a6_proc_0
      + 2233.932892003441 pi_d_a6_a0_proc_2
      + 1570.467106979761 pi_d_a6_a0_proc_1
      + 1275.814509077988 pi_d_a6_a0_proc_0
      + 2550.711912218465 pi_d_a0_a7_proc_2 + 318.707148217502 pi_d_a0_a7_proc_1
      + 2258.440309033018 pi_d_a0_a7_proc_0
      + 2543.805665905808 pi_d_a7_a0_proc_2 + 311.800901904845 pi_d_a7_a0_proc_1
      + 2251.534062720362 pi_d_a7_a0_proc_0
      + 2549.919923377041 pi_d_a0_a8_proc_2 + 314.168127803335 pi_d_a0_a8_proc_1
      + 2261.395351764339 pi_d_a0_a8_proc_0
      + 2544.597654747231 pi_d_a8_a0_proc_2 + 308.845859173524 pi_d_a8_a0_proc_1
      + 2256.073083134529 pi_d_a8_a0_proc_0
      + 2543.840818833906 pi_d_a0_a9_proc_2 + 308.089023260198 pi_d_a0_a9_proc_1
      + 2550.676759290295 pi_d_a9_a0_proc_2 + 314.924963716587 pi_d_a9_a0_proc_1
      + 1291.998681038785 pi_d_a1_a2_proc_2
      + 2570.992659893883 pi_d_a1_a2_proc_1
      + 1292.008619253487 pi_d_a1_a2_proc_0
      + 1266.998707581349 pi_d_a2_a1_proc_2
      + 2545.992686436447 pi_d_a2_a1_proc_1
      + 1267.008645796050 pi_d_a2_a1_proc_0
      + 2566.082235792098 pi_d_a1_a3_proc_1
      + 1296.917764196254 pi_d_a1_a3_proc_0
      + 2541.082235803745 pi_d_a3_a1_proc_1
      + 1271.917764207902 pi_d_a3_a1_proc_0 + 312.906519694172 pi_d_a1_a4_proc_2
      + 2251.390360730114 pi_d_a1_a4_proc_0 + 307.609639269886 pi_d_a4_a1_proc_2
      + 2246.093480305829 pi_d_a4_a1_proc_0
      + 2256.391985726473 pi_d_a1_a5_proc_1
      + 1606.607990466593 pi_d_a1_a5_proc_0
      + 2231.392009533407 pi_d_a5_a1_proc_1
      + 1581.608014273527 pi_d_a5_a1_proc_0 + 988.089560798502 pi_d_a1_a6_proc_2
      + 2560.375571348601 pi_d_a1_a6_proc_1
      + 1597.495749485678 pi_d_a1_a6_proc_0 + 969.115639709981 pi_d_a6_a1_proc_2
      + 2541.401650260081 pi_d_a6_a1_proc_1
      + 1578.521828397158 pi_d_a6_a1_proc_0
      + 1292.000000000000 pi_d_a1_a7_proc_2
      + 1295.747031572817 pi_d_a1_a7_proc_1
      + 2567.252968427183 pi_d_a1_a7_proc_0
      + 1267.000000000000 pi_d_a7_a1_proc_2
      + 1270.747031572817 pi_d_a7_a1_proc_1
      + 2542.252968427183 pi_d_a7_a1_proc_0
      + 1267.000000002365 pi_d_a1_a8_proc_2
      + 1267.000000002437 pi_d_a1_a8_proc_1
      + 2546.000000002292 pi_d_a1_a8_proc_0
      + 1291.999999997635 pi_d_a8_a1_proc_2
      + 1291.999999997708 pi_d_a8_a1_proc_1
      + 2570.999999997563 pi_d_a8_a1_proc_0
      + 1291.999999999964 pi_d_a1_a9_proc_2
      + 1292.000000000036 pi_d_a1_a9_proc_1
      + 1266.999999999965 pi_d_a9_a1_proc_2
      + 1267.000000000036 pi_d_a9_a1_proc_1
      + 2553.124814643609 pi_d_a2_a3_proc_1 + 4.976302407369 pi_d_a2_a3_proc_0
      + 2554.025003282565 pi_d_a3_a2_proc_1 + 5.876491046325 pi_d_a3_a2_proc_0
      + 1598.608320352499 pi_d_a2_a4_proc_2 + 979.102099603143 pi_d_a2_a4_proc_0
      + 1579.905227231692 pi_d_a4_a2_proc_2 + 960.399006482337 pi_d_a4_a2_proc_0
      + 2247.046130404774 pi_d_a2_a5_proc_1 + 318.278094504498 pi_d_a2_a5_proc_0
      + 2240.723211185436 pi_d_a5_a2_proc_1 + 311.955175285159 pi_d_a5_a2_proc_0
      + 2260.994836231754 pi_d_a2_a6_proc_2
      + 2554.274825636952 pi_d_a2_a6_proc_1 + 312.410963133633 pi_d_a2_a6_proc_0
      + 2254.207752896862 pi_d_a6_a2_proc_2
      + 2547.487742302059 pi_d_a6_a2_proc_1 + 305.623879798740 pi_d_a6_a2_proc_0
      + 2546.134348714230 pi_d_a2_a7_proc_2
      + 1270.875359142145 pi_d_a2_a7_proc_1
      + 1263.397255356115 pi_d_a2_a7_proc_0
      + 2570.863039905903 pi_d_a7_a2_proc_2
      + 1295.604050333818 pi_d_a7_a2_proc_1
      + 1288.125946547788 pi_d_a7_a2_proc_0
      + 2545.998763055213 pi_d_a2_a8_proc_2
      + 1266.992741910384 pi_d_a2_a8_proc_1
      + 1267.008701269843 pi_d_a2_a8_proc_0
      + 2570.998625564919 pi_d_a8_a2_proc_2
      + 1291.992604420091 pi_d_a8_a2_proc_1
      + 1292.008563779549 pi_d_a8_a2_proc_0
      + 2570.998621728530 pi_d_a2_a9_proc_2
      + 1291.992600583700 pi_d_a2_a9_proc_1
      + 2545.998766891532 pi_d_a9_a2_proc_2
      + 1266.992745746702 pi_d_a9_a2_proc_1 + 984.011244893859 pi_d_a3_a4_proc_0
      + 965.308124546240 pi_d_a4_a3_proc_0 + 2236.521562322152 pi_d_a3_a5_proc_1
      + 317.573095466428 pi_d_a3_a5_proc_0 + 2241.426904533572 pi_d_a5_a3_proc_1
      + 322.478437677849 pi_d_a5_a3_proc_0 + 2549.353262372833 pi_d_a3_a6_proc_1
      + 317.308968914067 pi_d_a3_a6_proc_0 + 2542.588430831692 pi_d_a6_a3_proc_1
      + 310.544137372925 pi_d_a6_a3_proc_0 + 1290.621500855121 pi_d_a3_a7_proc_1
      + 1292.962966113644 pi_d_a3_a7_proc_0
      + 1266.037033886356 pi_d_a7_a3_proc_1
      + 1268.378499144879 pi_d_a7_a3_proc_0
      + 1262.128388705876 pi_d_a3_a8_proc_1
      + 1271.963917109887 pi_d_a3_a8_proc_0
      + 1287.036082890113 pi_d_a8_a3_proc_1
      + 1296.871611294124 pi_d_a8_a3_proc_0
      + 1287.034457984582 pi_d_a3_a9_proc_1
      + 1262.130013611334 pi_d_a9_a3_proc_1
      + 1296.849921813740 pi_d_a4_a5_proc_0
      + 1271.849923962323 pi_d_a5_a4_proc_0
      + 1300.755557496430 pi_d_a4_a6_proc_2
      + 1290.645587219550 pi_d_a4_a6_proc_0
      + 1275.965801976109 pi_d_a6_a4_proc_2
      + 1265.855831699229 pi_d_a6_a4_proc_0
      + 1601.758077334760 pi_d_a4_a7_proc_2
      + 2257.494886797886 pi_d_a4_a7_proc_0
      + 1576.758081629297 pi_d_a7_a4_proc_2
      + 2232.494891092423 pi_d_a7_a4_proc_0
      + 1576.761131239841 pi_d_a4_a8_proc_2
      + 2236.244972275711 pi_d_a4_a8_proc_0
      + 1601.755027724216 pi_d_a8_a4_proc_2
      + 2261.238868760086 pi_d_a8_a4_proc_0
      + 1601.758079481992 pi_d_a4_a9_proc_2
      + 1576.758079481993 pi_d_a9_a4_proc_2
      + 2232.999359881118 pi_d_a5_a6_proc_1 + 620.335542758316 pi_d_a5_a6_proc_0
      + 2239.561856987443 pi_d_a6_a5_proc_1 + 626.898039864640 pi_d_a6_a5_proc_0
      + 959.182550842910 pi_d_a5_a7_proc_1 + 1580.904492437397 pi_d_a5_a7_proc_0
      + 978.095507562603 pi_d_a7_a5_proc_1 + 1599.817449157090 pi_d_a7_a5_proc_0
      + 974.004317653474 pi_d_a5_a8_proc_1 + 1603.220322393449 pi_d_a5_a8_proc_0
      + 955.779677606551 pi_d_a8_a5_proc_1 + 1584.995682346526 pi_d_a8_a5_proc_0
      + 974.194261815240 pi_d_a5_a9_proc_1 + 955.589733444712 pi_d_a9_a5_proc_1
      + 2269.961975247280 pi_d_a6_a7_proc_2
      + 1287.995017370196 pi_d_a6_a7_proc_1
      + 1596.621132361640 pi_d_a6_a7_proc_0
      + 2245.243225261202 pi_d_a7_a6_proc_2
      + 1263.276267384119 pi_d_a7_a6_proc_1
      + 1571.902382375563 pi_d_a7_a6_proc_0
      + 2245.363468825178 pi_d_a6_a8_proc_2
      + 1259.649479375351 pi_d_a6_a8_proc_1
      + 1575.769657512283 pi_d_a6_a8_proc_0
      + 2269.841731683304 pi_d_a8_a6_proc_2
      + 1284.127742233476 pi_d_a8_a6_proc_1
      + 1600.247920370409 pi_d_a8_a6_proc_0
      + 2245.174110451314 pi_d_a6_a9_proc_2
      + 1259.460121001486 pi_d_a6_a9_proc_1
      + 2270.031090057096 pi_d_a9_a6_proc_2
      + 1284.317100607268 pi_d_a9_a6_proc_1
      + 2557.822256251507 pi_d_a7_a8_proc_2 + 3.569287824397 pi_d_a7_a8_proc_1
      + 2554.075224678619 pi_d_a7_a8_proc_0
      + 2559.177743748492 pi_d_a8_a7_proc_2 + 4.924775321382 pi_d_a8_a7_proc_1
      + 2555.430712175603 pi_d_a8_a7_proc_0
      + 2558.029306189739 pi_d_a7_a9_proc_2 + 3.776337762627 pi_d_a7_a9_proc_1
      + 2558.970693810189 pi_d_a9_a7_proc_2 + 4.717725383078 pi_d_a9_a7_proc_1
      + 2558.999999999963 pi_d_a8_a9_proc_2 + 1.000000000108 pi_d_a8_a9_proc_1
      + 2557.999999999965 pi_d_a9_a8_proc_2 + 0.000000000110 pi_d_a9_a8_proc_1
      + 0.234375123183 pi_y2_a0_proc_0 + 0.756835814317 pi_y2_a0_proc_1
      + 0.008789062500 pi_y2_a0_proc_2 + 0.000000000000 pi_y2_a1_proc_0
      + 0.000000000000 pi_y2_a1_proc_1 + 1.000000000000 pi_y2_a1_proc_2
      + 0.999993250567 pi_y2_a2_proc_0 + 0.000005728565 pi_y2_a2_proc_1
      + 0.000001020868 pi_y2_a2_proc_2 + 0.996154992805 pi_y2_a3_proc_0
      + 0.003845007195 pi_y2_a3_proc_1 + 0.242187708743 pi_y2_a4_proc_0
      + 0.757812291257 pi_y2_a4_proc_2 + 0.754020326528 pi_y2_a5_proc_0
      + 0.245979673472 pi_y2_a5_proc_1 + 0.758789062595 pi_y2_a6_proc_0
      + 0.005951047065 pi_y2_a6_proc_1 + 0.235259890341 pi_y2_a6_proc_2
      + 0.002929657211 pi_y2_a7_proc_0 + 0.997070342789 pi_y2_a7_proc_1
      + 0.000000000000 pi_y2_a7_proc_2 + 0.000000000000 pi_y2_a8_proc_0
      + 1.000000000000 pi_y2_a8_proc_1 + 0.000000000000 pi_y2_a8_proc_2
      + 1.000000000000 pi_y2_a9_proc_1 + 0.000000000000 pi_y2_a9_proc_2
Subject To
 c1: 0.001338688086 pi_nr_a0 + 0.001531393568 pi_nr_a1 + 0.001488095238 pi_nr_a2
     + 0.001037344398 pi_nr_a3 + 0.000816993464 pi_nr_a4
     + 0.001396648045 pi_nr_a5 + 0.000934579439 pi_nr_a6
     + 0.002732240437 pi_nr_a7 + 0.001739130435 pi_nr_a8
     + 0.000974658869 pi_nr_a9 + pi_p_a4_a5 + pi_p_a4_a7 + pi_p_a8_a0
     + 1292 pi_d_a0_a1_proc_2 + 1292 pi_d_a0_a1_proc_1 + 2571 pi_d_a0_a1_proc_0
     + 1267 pi_d_a1_a0_proc_2 + 1267 pi_d_a1_a0_proc_1 + 2546 pi_d_a1_a0_proc_0
     + 2571 pi_d_a0_a2_proc_2 + 1292 pi_d_a0_a2_proc_1 + 1292 pi_d_a0_a2_proc_0
     + 2546 pi_d_a2_a0_proc_2 + 1267 pi_d_a2_a0_proc_1 + 1267 pi_d_a2_a0_proc_0
     + 1292 pi_d_a0_a3_proc_1 + 1292 pi_d_a0_a3_proc_0 + 1267 pi_d_a3_a0_proc_1
     + 1267 pi_d_a3_a0_proc_0 + 1292 pi_d_a0_a4_proc_2 + 2571 pi_d_a0_a4_proc_0
     + 1267 pi_d_a4_a0_proc_2 + 2546 pi_d_a4_a0_proc_0 + 1267 pi_d_a0_a5_proc_1
     + 1267 pi_d_a0_a5_proc_0 + 1292 pi_d_a5_a0_proc_1 + 1292 pi_d_a5_a0_proc_0
     + 2571 pi_d_a0_a6_proc_2 + 1292 pi_d_a0_a6_proc_1 + 1292 pi_d_a0_a6_proc_0
     + 2546 pi_d_a6_a0_proc_2 + 1267 pi_d_a6_a0_proc_1 + 1267 pi_d_a6_a0_proc_0
     + 2559 pi_d_a0_a7_proc_2 + pi_d_a0_a7_proc_1 + 2559 pi_d_a0_a7_proc_0
     + 2558 pi_d_a7_a0_proc_2 + 2558 pi_d_a7_a0_proc_0 + 2558 pi_d_a0_a8_proc_2
     + 2558 pi_d_a0_a8_proc_0 + 2559 pi_d_a8_a0_proc_2 + pi_d_a8_a0_proc_1
     + 2559 pi_d_a8_a0_proc_0 + 2558 pi_d_a0_a9_proc_2 + 2559 pi_d_a9_a0_proc_2
     + pi_d_a9_a0_proc_1 + 1292 pi_d_a1_a2_proc_2 + 2571 pi_d_a1_a2_proc_1
     + 1292 pi_d_a1_a2_proc_0 + 1267 pi_d_a2_a1_proc_2 + 2546 pi_d_a2_a1_proc_1
     + 1267 pi_d_a2_a1_proc_0 + 2571 pi_d_a1_a3_proc_1 + 1292 pi_d_a1_a3_proc_0
     + 2546 pi_d_a3_a1_proc_1 + 1267 pi_d_a3_a1_proc_0 + 2558 pi_d_a1_a4_proc_0
     + pi_d_a4_a1_proc_2 + 2559 pi_d_a4_a1_proc_0 + 2571 pi_d_a1_a5_proc_1
     + 1292 pi_d_a1_a5_proc_0 + 2546 pi_d_a5_a1_proc_1 + 1267 pi_d_a5_a1_proc_0
     + 1292 pi_d_a1_a6_proc_2 + 2571 pi_d_a1_a6_proc_1 + 1292 pi_d_a1_a6_proc_0
     + 1267 pi_d_a6_a1_proc_2 + 2546 pi_d_a6_a1_proc_1 + 1267 pi_d_a6_a1_proc_0
     + 1292 pi_d_a1_a7_proc_2 + 1292 pi_d_a1_a7_proc_1 + 2571 pi_d_a1_a7_proc_0
     + 1267 pi_d_a7_a1_proc_2 + 1267 pi_d_a7_a1_proc_1 + 2546 pi_d_a7_a1_proc_0
     + 1267 pi_d_a1_a8_proc_2 + 1267 pi_d_a1_a8_proc_1 + 2546 pi_d_a1_a8_proc_0
     + 1292 pi_d_a8_a1_proc_2 + 1292 pi_d_a8_a1_proc_1 + 2571 pi_d_a8_a1_proc_0
     + 1292 pi_d_a1_a9_proc_2 + 1292 pi_d_a1_a9_proc_1 + 1267 pi_d_a9_a1_proc_2
     + 1267 pi_d_a9_a1_proc_1 + 2558 pi_d_a2_a3_proc_1 + 2559 pi_d_a3_a2_proc_1
     + pi_d_a3_a2_proc_0 + 1292 pi_d_a2_a4_proc_2 + 1292 pi_d_a2_a4_proc_0
     + 1267 pi_d_a4_a2_proc_2 + 1267 pi_d_a4_a2_proc_0 + 2559 pi_d_a2_a5_proc_1
     + pi_d_a2_a5_proc_0 + 2558 pi_d_a5_a2_proc_1 + 2559 pi_d_a2_a6_proc_2
     + 2559 pi_d_a2_a6_proc_1 + pi_d_a2_a6_proc_0 + 2558 pi_d_a6_a2_proc_2
     + 2558 pi_d_a6_a2_proc_1 + 2546 pi_d_a2_a7_proc_2 + 1267 pi_d_a2_a7_proc_1
     + 1267 pi_d_a2_a7_proc_0 + 2571 pi_d_a7_a2_proc_2 + 1292 pi_d_a7_a2_proc_1
     + 1292 pi_d_a7_a2_proc_0 + 2546 pi_d_a2_a8_proc_2 + 1267 pi_d_a2_a8_proc_1
     + 1267 pi_d_a2_a8_proc_0 + 2571 pi_d_a8_a2_proc_2 + 1292 pi_d_a8_a2_proc_1
     + 1292 pi_d_a8_a2_proc_0 + 2571 pi_d_a2_a9_proc_2 + 1292 pi_d_a2_a9_proc_1
     + 2546 pi_d_a9_a2_proc_2 + 1267 pi_d_a9_a2_proc_1 + 1292 pi_d_a3_a4_proc_0
     + 1267 pi_d_a4_a3_proc_0 + 2559 pi_d_a3_a5_proc_1 + pi_d_a3_a5_proc_0
     + 2558 pi_d_a5_a3_proc_1 + 2559 pi_d_a3_a6_proc_1 + pi_d_a3_a6_proc_0
     + 2558 pi_d_a6_a3_proc_1 + 1292 pi_d_a3_a7_proc_1 + 1292 pi_d_a3_a7_proc_0
     + 1267 pi_d_a7_a3_proc_1 + 1267 pi_d_a7_a3_proc_0 + 1267 pi_d_a3_a8_proc_1
     + 1267 pi_d_a3_a8_proc_0 + 1292 pi_d_a8_a3_proc_1 + 1292 pi_d_a8_a3_proc_0
     + 1292 pi_d_a3_a9_proc_1 + 1267 pi_d_a9_a3_proc_1 + 1292 pi_d_a4_a5_proc_0
     + 1267 pi_d_a5_a4_proc_0 + 1292 pi_d_a4_a6_proc_2 + 1292 pi_d_a4_a6_proc_0
     + 1267 pi_d_a6_a4_proc_2 + 1267 pi_d_a6_a4_proc_0 + 1292 pi_d_a4_a7_proc_2
     + 2571 pi_d_a4_a7_proc_0 + 1267 pi_d_a7_a4_proc_2 + 2546 pi_d_a7_a4_proc_0
     + 1267 pi_d_a4_a8_proc_2 + 2546 pi_d_a4_a8_proc_0 + 1292 pi_d_a8_a4_proc_2
     + 2571 pi_d_a8_a4_proc_0 + 1292 pi_d_a4_a9_proc_2 + 1267 pi_d_a9_a4_proc_2
     + 2558 pi_d_a5_a6_proc_1 + 2559 pi_d_a6_a5_proc_1 + pi_d_a6_a5_proc_0
     + 1267 pi_d_a5_a7_proc_1 + 1267 pi_d_a5_a7_proc_0 + 1292 pi_d_a7_a5_proc_1
     + 1292 pi_d_a7_a5_proc_0 + 1292 pi_d_a5_a8_proc_1 + 1292 pi_d_a5_a8_proc_0
     + 1267 pi_d_a8_a5_proc_1 + 1267 pi_d_a8_a5_proc_0 + 1292 pi_d_a5_a9_proc_1
     + 1267 pi_d_a9_a5_proc_1 + 2571 pi_d_a6_a7_proc_2 + 1292 pi_d_a6_a7_proc_1
     + 1292 pi_d_a6_a7_proc_0 + 2546 pi_d_a7_a6_proc_2 + 1267 pi_d_a7_a6_proc_1
     + 1267 pi_d_a7_a6_proc_0 + 2546 pi_d_a6_a8_proc_2 + 1267 pi_d_a6_a8_proc_1
     + 1267 pi_d_a6_a8_proc_0 + 2571 pi_d_a8_a6_proc_2 + 1292 pi_d_a8_a6_proc_1
     + 1292 pi_d_a8_a6_proc_0 + 2546 pi_d_a6_a9_proc_2 + 1267 pi_d_a6_a9_proc_1
     + 2571 pi_d_a9_a6_proc_2 + 1292 pi_d_a9_a6_proc_1 + 2558 pi_d_a7_a8_proc_2
     + 2558 pi_d_a7_a8_proc_0 + 2559 pi_d_a8_a7_proc_2 + pi_d_a8_a7_proc_1
     + 2559 pi_d_a8_a7_proc_0 + 2558 pi_d_a7_a9_proc_2 + 2559 pi_d_a9_a7_proc_2
     + pi_d_a9_a7_proc_1 + 2559 pi_d_a8_a9_proc_2 + pi_d_a8_a9_proc_1
     + 2558 pi_d_a9_a8_proc_2 + pi_y2_a0_proc_1 + pi_y2_a1_proc_2
     + pi_y2_a2_proc_0 + pi_y2_a3_proc_0 + pi_y2_a4_proc_2 + pi_y2_a5_proc_0
     + pi_y2_a6_proc_0 + pi_y2_a7_proc_1 + pi_y2_a8_proc_1 + pi_y2_a9_proc_1 = 
     0.000215238915
 c2: pi_nr_a0 + pi_nr_a1 + pi_nr_a2 + pi_nr_a3 + pi_nr_a4 + pi_nr_a5 + pi_nr_a6
     + pi_nr_a7 + pi_nr_a8 + pi_nr_a9 - pi_y1_a0 - pi_y1_a1 - pi_y1_a2
     - pi_y1_a3 - pi_y1_a4 - pi_y1_a5 - pi_y1_a6 - pi_y1_a7 - pi_y1_a8
     - pi_y1_a9 >= 1
 c3: - pi_p_a1_a0 + pi_p_a0_a2 - pi_p_a8_a0 + pi_d_a0_a1_proc_2
     + pi_d_a0_a1_proc_1 + pi_d_a0_a1_proc_0 - pi_d_a1_a0_proc_2
     - pi_d_a1_a0_proc_1 - pi_d_a1_a0_proc_0 + pi_d_a0_a2_proc_2
     + pi_d_a0_a2_proc_1 + pi_d_a0_a2_proc_0 - pi_d_a2_a0_proc_2
     - pi_d_a2_a0_proc_1 - pi_d_a2_a0_proc_0 + pi_d_a0_a3_proc_1
     + pi_d_a0_a3_proc_0 - pi_d_a3_a0_proc_1 - pi_d_a3_a0_proc_0
     + pi_d_a0_a4_proc_2 + pi_d_a0_a4_proc_0 - pi_d_a4_a0_proc_2
     - pi_d_a4_a0_proc_0 + pi_d_a0_a5_proc_1 + pi_d_a0_a5_proc_0
     - pi_d_a5_a0_proc_1 - pi_d_a5_a0_proc_0 + pi_d_a0_a6_proc_2
     + pi_d_a0_a6_proc_1 + pi_d_a0_a6_proc_0 - pi_d_a6_a0_proc_2
     - pi_d_a6_a0_proc_1 - pi_d_a6_a0_proc_0 + pi_d_a0_a7_proc_2
     + pi_d_a0_a7_proc_1 + pi_d_a0_a7_proc_0 - pi_d_a7_a0_proc_2
     - pi_d_a7_a0_proc_1 - pi_d_a7_a0_proc_0 + pi_d_a0_a8_proc_2
     + pi_d_a0_a8_proc_1 + pi_d_a0_a8_proc_0 - pi_d_a8_a0_proc_2
     - pi_d_a8_a0_proc_1 - pi_d_a8_a0_proc_0 + pi_d_a0_a9_proc_2
     + pi_d_a0_a9_proc_1 - pi_d_a9_a0_proc_2 - pi_d_a9_a0_proc_1 >= 0
 c4: 937 pi_p_a0_a2 + 937 pi_d_a0_a1_proc_0 + 937 pi_d_a0_a2_proc_0
     + 937 pi_d_a0_a3_proc_0 + 937 pi_d_a0_a4_proc_0 + 937 pi_d_a0_a5_proc_0
     + 937 pi_d_a0_a6_proc_0 + 937 pi_d_a0_a7_proc_0 + 937 pi_d_a0_a8_proc_0
     + pi_y1_a0 + pi_y2_a0_proc_0 >= 0
 c5: 747 pi_p_a0_a2 + 747 pi_d_a0_a1_proc_1 + 747 pi_d_a0_a2_proc_1
     + 747 pi_d_a0_a3_proc_1 + 747 pi_d_a0_a5_proc_1 + 747 pi_d_a0_a6_proc_1
     + 747 pi_d_a0_a7_proc_1 + 747 pi_d_a0_a8_proc_1 + 747 pi_d_a0_a9_proc_1
     + pi_y1_a0 + pi_y2_a0_proc_1 >= 0
 c6: 1226 pi_p_a0_a2 + 1226 pi_d_a0_a1_proc_2 + 1226 pi_d_a0_a2_proc_2
     + 1226 pi_d_a0_a4_proc_2 + 1226 pi_d_a0_a6_proc_2 + 1226 pi_d_a0_a7_proc_2
     + 1226 pi_d_a0_a8_proc_2 + 1226 pi_d_a0_a9_proc_2 + pi_y1_a0
     + pi_y2_a0_proc_2 >= 0
 c7: pi_p_a1_a0 - pi_p_a7_a1 - pi_d_a0_a1_proc_2 - pi_d_a0_a1_proc_1
     - pi_d_a0_a1_proc_0 + pi_d_a1_a0_proc_2 + pi_d_a1_a0_proc_1
     + pi_d_a1_a0_proc_0 + pi_d_a1_a2_proc_2 + pi_d_a1_a2_proc_1
     + pi_d_a1_a2_proc_0 - pi_d_a2_a1_proc_2 - pi_d_a2_a1_proc_1
     - pi_d_a2_a1_proc_0 + pi_d_a1_a3_proc_1 + pi_d_a1_a3_proc_0
     - pi_d_a3_a1_proc_1 - pi_d_a3_a1_proc_0 + pi_d_a1_a4_proc_2
     + pi_d_a1_a4_proc_0 - pi_d_a4_a1_proc_2 - pi_d_a4_a1_proc_0
     + pi_d_a1_a5_proc_1 + pi_d_a1_a5_proc_0 - pi_d_a5_a1_proc_1
     - pi_d_a5_a1_proc_0 + pi_d_a1_a6_proc_2 + pi_d_a1_a6_proc_1
     + pi_d_a1_a6_proc_0 - pi_d_a6_a1_proc_2 - pi_d_a6_a1_proc_1
     - pi_d_a6_a1_proc_0 + pi_d_a1_a7_proc_2 + pi_d_a1_a7_proc_1
     + pi_d_a1_a7_proc_0 - pi_d_a7_a1_proc_2 - pi_d_a7_a1_proc_1
     - pi_d_a7_a1_proc_0 + pi_d_a1_a8_proc_2 + pi_d_a1_a8_proc_1
     + pi_d_a1_a8_proc_0 - pi_d_a8_a1_proc_2 - pi_d_a8_a1_proc_1
     - pi_d_a8_a1_proc_0 + pi_d_a1_a9_proc_2 + pi_d_a1_a9_proc_1
     - pi_d_a9_a1_proc_2 - pi_d_a9_a1_proc_1 >= 0
 c8: 789 pi_p_a1_a0 + 789 pi_d_a1_a0_proc_0 + 789 pi_d_a1_a2_proc_0
     + 789 pi_d_a1_a3_proc_0 + 789 pi_d_a1_a4_proc_0 + 789 pi_d_a1_a5_proc_0
     + 789 pi_d_a1_a6_proc_0 + 789 pi_d_a1_a7_proc_0 + 789 pi_d_a1_a8_proc_0
     + pi_y1_a1 + pi_y2_a1_proc_0 >= 0
 c9: 1184 pi_p_a1_a0 + 1184 pi_d_a1_a0_proc_1 + 1184 pi_d_a1_a2_proc_1
     + 1184 pi_d_a1_a3_proc_1 + 1184 pi_d_a1_a5_proc_1 + 1184 pi_d_a1_a6_proc_1
     + 1184 pi_d_a1_a7_proc_1 + 1184 pi_d_a1_a8_proc_1 + 1184 pi_d_a1_a9_proc_1
     + pi_y1_a1 + pi_y2_a1_proc_1 >= 0
 c10: 653 pi_p_a1_a0 + 653 pi_d_a1_a0_proc_2 + 653 pi_d_a1_a2_proc_2
      + 653 pi_d_a1_a4_proc_2 + 653 pi_d_a1_a6_proc_2 + 653 pi_d_a1_a7_proc_2
      + 653 pi_d_a1_a8_proc_2 + 653 pi_d_a1_a9_proc_2 + pi_y1_a1
      + pi_y2_a1_proc_2 >= 0
 c11: - pi_p_a0_a2 + pi_p_a2_a3 - pi_d_a0_a2_proc_2 - pi_d_a0_a2_proc_1
      - pi_d_a0_a2_proc_0 + pi_d_a2_a0_proc_2 + pi_d_a2_a0_proc_1
      + pi_d_a2_a0_proc_0 - pi_d_a1_a2_proc_2 - pi_d_a1_a2_proc_1
      - pi_d_a1_a2_proc_0 + pi_d_a2_a1_proc_2 + pi_d_a2_a1_proc_1
      + pi_d_a2_a1_proc_0 + pi_d_a2_a3_proc_1 + pi_d_a2_a3_proc_0
      - pi_d_a3_a2_proc_1 - pi_d_a3_a2_proc_0 + pi_d_a2_a4_proc_2
      + pi_d_a2_a4_proc_0 - pi_d_a4_a2_proc_2 - pi_d_a4_a2_proc_0
      + pi_d_a2_a5_proc_1 + pi_d_a2_a5_proc_0 - pi_d_a5_a2_proc_1
      - pi_d_a5_a2_proc_0 + pi_d_a2_a6_proc_2 + pi_d_a2_a6_proc_1
      + pi_d_a2_a6_proc_0 - pi_d_a6_a2_proc_2 - pi_d_a6_a2_proc_1
      - pi_d_a6_a2_proc_0 + pi_d_a2_a7_proc_2 + pi_d_a2_a7_proc_1
      + pi_d_a2_a7_proc_0 - pi_d_a7_a2_proc_2 - pi_d_a7_a2_proc_1
      - pi_d_a7_a2_proc_0 + pi_d_a2_a8_proc_2 + pi_d_a2_a8_proc_1
      + pi_d_a2_a8_proc_0 - pi_d_a8_a2_proc_2 - pi_d_a8_a2_proc_1
      - pi_d_a8_a2_proc_0 + pi_d_a2_a9_proc_2 + pi_d_a2_a9_proc_1
      - pi_d_a9_a2_proc_2 - pi_d_a9_a2_proc_1 >= 0
 c12: 672 pi_p_a2_a3 + 672 pi_d_a2_a0_proc_0 + 672 pi_d_a2_a1_proc_0
      + 672 pi_d_a2_a3_proc_0 + 672 pi_d_a2_a4_proc_0 + 672 pi_d_a2_a5_proc_0
      + 672 pi_d_a2_a6_proc_0 + 672 pi_d_a2_a7_proc_0 + 672 pi_d_a2_a8_proc_0
      + pi_y1_a2 + pi_y2_a2_proc_0 >= 0
 c13: 1020 pi_p_a2_a3 + 1020 pi_d_a2_a0_proc_1 + 1020 pi_d_a2_a1_proc_1
      + 1020 pi_d_a2_a3_proc_1 + 1020 pi_d_a2_a5_proc_1 + 1020 pi_d_a2_a6_proc_1
      + 1020 pi_d_a2_a7_proc_1 + 1020 pi_d_a2_a8_proc_1 + 1020 pi_d_a2_a9_proc_1
      + pi_y1_a2 + pi_y2_a2_proc_1 >= 0
 c14: 812 pi_p_a2_a3 + 812 pi_d_a2_a0_proc_2 + 812 pi_d_a2_a1_proc_2
      + 812 pi_d_a2_a4_proc_2 + 812 pi_d_a2_a6_proc_2 + 812 pi_d_a2_a7_proc_2
      + 812 pi_d_a2_a8_proc_2 + 812 pi_d_a2_a9_proc_2 + pi_y1_a2
      + pi_y2_a2_proc_2 >= 0
 c15: - pi_p_a2_a3 + pi_p_a3_a4 - pi_d_a0_a3_proc_1 - pi_d_a0_a3_proc_0
      + pi_d_a3_a0_proc_1 + pi_d_a3_a0_proc_0 - pi_d_a1_a3_proc_1
      - pi_d_a1_a3_proc_0 + pi_d_a3_a1_proc_1 + pi_d_a3_a1_proc_0
      - pi_d_a2_a3_proc_1 - pi_d_a2_a3_proc_0 + pi_d_a3_a2_proc_1
      + pi_d_a3_a2_proc_0 + pi_d_a3_a4_proc_0 - pi_d_a4_a3_proc_0
      + pi_d_a3_a5_proc_1 + pi_d_a3_a5_proc_0 - pi_d_a5_a3_proc_1
      - pi_d_a5_a3_proc_0 + pi_d_a3_a6_proc_1 + pi_d_a3_a6_proc_0
      - pi_d_a6_a3_proc_1 - pi_d_a6_a3_proc_0 + pi_d_a3_a7_proc_1
      + pi_d_a3_a7_proc_0 - pi_d_a7_a3_proc_1 - pi_d_a7_a3_proc_0
      + pi_d_a3_a8_proc_1 + pi_d_a3_a8_proc_0 - pi_d_a8_a3_proc_1
      - pi_d_a8_a3_proc_0 + pi_d_a3_a9_proc_1 - pi_d_a9_a3_proc_1 >= 0
 c16: 964 pi_p_a3_a4 + 964 pi_d_a3_a0_proc_0 + 964 pi_d_a3_a1_proc_0
      + 964 pi_d_a3_a2_proc_0 + 964 pi_d_a3_a4_proc_0 + 964 pi_d_a3_a5_proc_0
      + 964 pi_d_a3_a6_proc_0 + 964 pi_d_a3_a7_proc_0 + 964 pi_d_a3_a8_proc_0
      + pi_y1_a3 + pi_y2_a3_proc_0 >= 0
 c17: 1074 pi_p_a3_a4 + 1074 pi_d_a3_a0_proc_1 + 1074 pi_d_a3_a1_proc_1
      + 1074 pi_d_a3_a2_proc_1 + 1074 pi_d_a3_a5_proc_1 + 1074 pi_d_a3_a6_proc_1
      + 1074 pi_d_a3_a7_proc_1 + 1074 pi_d_a3_a8_proc_1 + 1074 pi_d_a3_a9_proc_1
      + pi_y1_a3 + pi_y2_a3_proc_1 >= 0
 c18: - pi_p_a3_a4 + pi_p_a4_a5 - pi_p_a5_a4 + pi_p_a4_a7 - pi_d_a0_a4_proc_2
      - pi_d_a0_a4_proc_0 + pi_d_a4_a0_proc_2 + pi_d_a4_a0_proc_0
      - pi_d_a1_a4_proc_2 - pi_d_a1_a4_proc_0 + pi_d_a4_a1_proc_2
      + pi_d_a4_a1_proc_0 - pi_d_a2_a4_proc_2 - pi_d_a2_a4_proc_0
      + pi_d_a4_a2_proc_2 + pi_d_a4_a2_proc_0 - pi_d_a3_a4_proc_0
      + pi_d_a4_a3_proc_0 + pi_d_a4_a5_proc_0 - pi_d_a5_a4_proc_0
      + pi_d_a4_a6_proc_2 + pi_d_a4_a6_proc_0 - pi_d_a6_a4_proc_2
      - pi_d_a6_a4_proc_0 + pi_d_a4_a7_proc_2 + pi_d_a4_a7_proc_0
      - pi_d_a7_a4_proc_2 - pi_d_a7_a4_proc_0 + pi_d_a4_a8_proc_2
      + pi_d_a4_a8_proc_0 - pi_d_a8_a4_proc_2 - pi_d_a8_a4_proc_0
      + pi_d_a4_a9_proc_2 - pi_d_a9_a4_proc_2 >= 0
 c19: 1271 pi_p_a4_a5 + 1271 pi_p_a4_a7 + 1271 pi_d_a4_a0_proc_0
      + 1271 pi_d_a4_a1_proc_0 + 1271 pi_d_a4_a2_proc_0 + 1271 pi_d_a4_a3_proc_0
      + 1271 pi_d_a4_a5_proc_0 + 1271 pi_d_a4_a6_proc_0 + 1271 pi_d_a4_a7_proc_0
      + 1271 pi_d_a4_a8_proc_0 + pi_y1_a4 + pi_y2_a4_proc_0 >= 0
 c20: 1224 pi_p_a4_a5 + 1224 pi_p_a4_a7 + 1224 pi_d_a4_a0_proc_2
      + 1224 pi_d_a4_a1_proc_2 + 1224 pi_d_a4_a2_proc_2 + 1224 pi_d_a4_a6_proc_2
      + 1224 pi_d_a4_a7_proc_2 + 1224 pi_d_a4_a8_proc_2 + 1224 pi_d_a4_a9_proc_2
      + pi_y1_a4 + pi_y2_a4_proc_2 >= 0
 c21: - pi_p_a4_a5 + pi_p_a5_a6 + pi_p_a5_a9 + pi_p_a5_a4 - pi_d_a0_a5_proc_1
      - pi_d_a0_a5_proc_0 + pi_d_a5_a0_proc_1 + pi_d_a5_a0_proc_0
      - pi_d_a1_a5_proc_1 - pi_d_a1_a5_proc_0 + pi_d_a5_a1_proc_1
      + pi_d_a5_a1_proc_0 - pi_d_a2_a5_proc_1 - pi_d_a2_a5_proc_0
      + pi_d_a5_a2_proc_1 + pi_d_a5_a2_proc_0 - pi_d_a3_a5_proc_1
      - pi_d_a3_a5_proc_0 + pi_d_a5_a3_proc_1 + pi_d_a5_a3_proc_0
      - pi_d_a4_a5_proc_0 + pi_d_a5_a4_proc_0 + pi_d_a5_a6_proc_1
      + pi_d_a5_a6_proc_0 - pi_d_a6_a5_proc_1 - pi_d_a6_a5_proc_0
      + pi_d_a5_a7_proc_1 + pi_d_a5_a7_proc_0 - pi_d_a7_a5_proc_1
      - pi_d_a7_a5_proc_0 + pi_d_a5_a8_proc_1 + pi_d_a5_a8_proc_0
      - pi_d_a8_a5_proc_1 - pi_d_a8_a5_proc_0 + pi_d_a5_a9_proc_1
      - pi_d_a9_a5_proc_1 >= 0
 c22: 716 pi_p_a5_a6 + 716 pi_p_a5_a9 + 716 pi_p_a5_a4 + 716 pi_d_a5_a0_proc_0
      + 716 pi_d_a5_a1_proc_0 + 716 pi_d_a5_a2_proc_0 + 716 pi_d_a5_a3_proc_0
      + 716 pi_d_a5_a4_proc_0 + 716 pi_d_a5_a6_proc_0 + 716 pi_d_a5_a7_proc_0
      + 716 pi_d_a5_a8_proc_0 + pi_y1_a5 + pi_y2_a5_proc_0 >= 0
 c23: 700 pi_p_a5_a6 + 700 pi_p_a5_a9 + 700 pi_p_a5_a4 + 700 pi_d_a5_a0_proc_1
      + 700 pi_d_a5_a1_proc_1 + 700 pi_d_a5_a2_proc_1 + 700 pi_d_a5_a3_proc_1
      + 700 pi_d_a5_a6_proc_1 + 700 pi_d_a5_a7_proc_1 + 700 pi_d_a5_a8_proc_1
      + 700 pi_d_a5_a9_proc_1 + pi_y1_a5 + pi_y2_a5_proc_1 >= 0
 c24: - pi_p_a5_a6 + pi_p_a6_a8 - pi_d_a0_a6_proc_2 - pi_d_a0_a6_proc_1
      - pi_d_a0_a6_proc_0 + pi_d_a6_a0_proc_2 + pi_d_a6_a0_proc_1
      + pi_d_a6_a0_proc_0 - pi_d_a1_a6_proc_2 - pi_d_a1_a6_proc_1
      - pi_d_a1_a6_proc_0 + pi_d_a6_a1_proc_2 + pi_d_a6_a1_proc_1
      + pi_d_a6_a1_proc_0 - pi_d_a2_a6_proc_2 - pi_d_a2_a6_proc_1
      - pi_d_a2_a6_proc_0 + pi_d_a6_a2_proc_2 + pi_d_a6_a2_proc_1
      + pi_d_a6_a2_proc_0 - pi_d_a3_a6_proc_1 - pi_d_a3_a6_proc_0
      + pi_d_a6_a3_proc_1 + pi_d_a6_a3_proc_0 - pi_d_a4_a6_proc_2
      - pi_d_a4_a6_proc_0 + pi_d_a6_a4_proc_2 + pi_d_a6_a4_proc_0
      - pi_d_a5_a6_proc_1 - pi_d_a5_a6_proc_0 + pi_d_a6_a5_proc_1
      + pi_d_a6_a5_proc_0 + pi_d_a6_a7_proc_2 + pi_d_a6_a7_proc_1
      + pi_d_a6_a7_proc_0 - pi_d_a7_a6_proc_2 - pi_d_a7_a6_proc_1
      - pi_d_a7_a6_proc_0 + pi_d_a6_a8_proc_2 + pi_d_a6_a8_proc_1
      + pi_d_a6_a8_proc_0 - pi_d_a8_a6_proc_2 - pi_d_a8_a6_proc_1
      - pi_d_a8_a6_proc_0 + pi_d_a6_a9_proc_2 + pi_d_a6_a9_proc_1
      - pi_d_a9_a6_proc_2 - pi_d_a9_a6_proc_1 >= 0
 c25: 1070 pi_p_a6_a8 + 1070 pi_d_a6_a0_proc_0 + 1070 pi_d_a6_a1_proc_0
      + 1070 pi_d_a6_a2_proc_0 + 1070 pi_d_a6_a3_proc_0 + 1070 pi_d_a6_a4_proc_0
      + 1070 pi_d_a6_a5_proc_0 + 1070 pi_d_a6_a7_proc_0 + 1070 pi_d_a6_a8_proc_0
      + pi_y1_a6 + pi_y2_a6_proc_0 >= 0
 c26: 1046 pi_p_a6_a8 + 1046 pi_d_a6_a0_proc_1 + 1046 pi_d_a6_a1_proc_1
      + 1046 pi_d_a6_a2_proc_1 + 1046 pi_d_a6_a3_proc_1 + 1046 pi_d_a6_a5_proc_1
      + 1046 pi_d_a6_a7_proc_1 + 1046 pi_d_a6_a8_proc_1 + 1046 pi_d_a6_a9_proc_1
      + pi_y1_a6 + pi_y2_a6_proc_1 >= 0
 c27: 1019 pi_p_a6_a8 + 1019 pi_d_a6_a0_proc_2 + 1019 pi_d_a6_a1_proc_2
      + 1019 pi_d_a6_a2_proc_2 + 1019 pi_d_a6_a4_proc_2 + 1019 pi_d_a6_a7_proc_2
      + 1019 pi_d_a6_a8_proc_2 + 1019 pi_d_a6_a9_proc_2 + pi_y1_a6
      + pi_y2_a6_proc_2 >= 0
 c28: pi_p_a7_a1 - pi_p_a4_a7 - pi_d_a0_a7_proc_2 - pi_d_a0_a7_proc_1
      - pi_d_a0_a7_proc_0 + pi_d_a7_a0_proc_2 + pi_d_a7_a0_proc_1
      + pi_d_a7_a0_proc_0 - pi_d_a1_a7_proc_2 - pi_d_a1_a7_proc_1
      - pi_d_a1_a7_proc_0 + pi_d_a7_a1_proc_2 + pi_d_a7_a1_proc_1
      + pi_d_a7_a1_proc_0 - pi_d_a2_a7_proc_2 - pi_d_a2_a7_proc_1
      - pi_d_a2_a7_proc_0 + pi_d_a7_a2_proc_2 + pi_d_a7_a2_proc_1
      + pi_d_a7_a2_proc_0 - pi_d_a3_a7_proc_1 - pi_d_a3_a7_proc_0
      + pi_d_a7_a3_proc_1 + pi_d_a7_a3_proc_0 - pi_d_a4_a7_proc_2
      - pi_d_a4_a7_proc_0 + pi_d_a7_a4_proc_2 + pi_d_a7_a4_proc_0
      - pi_d_a5_a7_proc_1 - pi_d_a5_a7_proc_0 + pi_d_a7_a5_proc_1
      + pi_d_a7_a5_proc_0 - pi_d_a6_a7_proc_2 - pi_d_a6_a7_proc_1
      - pi_d_a6_a7_proc_0 + pi_d_a7_a6_proc_2 + pi_d_a7_a6_proc_1
      + pi_d_a7_a6_proc_0 + pi_d_a7_a8_proc_2 + pi_d_a7_a8_proc_1
      + pi_d_a7_a8_proc_0 - pi_d_a8_a7_proc_2 - pi_d_a8_a7_proc_1
      - pi_d_a8_a7_proc_0 + pi_d_a7_a9_proc_2 + pi_d_a7_a9_proc_1
      - pi_d_a9_a7_proc_2 - pi_d_a9_a7_proc_1 >= 0
 c29: 686 pi_p_a7_a1 + 686 pi_d_a7_a0_proc_0 + 686 pi_d_a7_a1_proc_0
      + 686 pi_d_a7_a2_proc_0 + 686 pi_d_a7_a3_proc_0 + 686 pi_d_a7_a4_proc_0
      + 686 pi_d_a7_a5_proc_0 + 686 pi_d_a7_a6_proc_0 + 686 pi_d_a7_a8_proc_0
      + pi_y1_a7 + pi_y2_a7_proc_0 >= 0
 c30: 366 pi_p_a7_a1 + 366 pi_d_a7_a0_proc_1 + 366 pi_d_a7_a1_proc_1
      + 366 pi_d_a7_a2_proc_1 + 366 pi_d_a7_a3_proc_1 + 366 pi_d_a7_a5_proc_1
      + 366 pi_d_a7_a6_proc_1 + 366 pi_d_a7_a8_proc_1 + 366 pi_d_a7_a9_proc_1
      + pi_y1_a7 + pi_y2_a7_proc_1 >= 0
 c31: 1279 pi_p_a7_a1 + 1279 pi_d_a7_a0_proc_2 + 1279 pi_d_a7_a1_proc_2
      + 1279 pi_d_a7_a2_proc_2 + 1279 pi_d_a7_a4_proc_2 + 1279 pi_d_a7_a6_proc_2
      + 1279 pi_d_a7_a8_proc_2 + 1279 pi_d_a7_a9_proc_2 + pi_y1_a7
      + pi_y2_a7_proc_2 >= 0
 c32: - pi_p_a6_a8 + pi_p_a8_a0 - pi_p_a9_a8 - pi_d_a0_a8_proc_2
      - pi_d_a0_a8_proc_1 - pi_d_a0_a8_proc_0 + pi_d_a8_a0_proc_2
      + pi_d_a8_a0_proc_1 + pi_d_a8_a0_proc_0 - pi_d_a1_a8_proc_2
      - pi_d_a1_a8_proc_1 - pi_d_a1_a8_proc_0 + pi_d_a8_a1_proc_2
      + pi_d_a8_a1_proc_1 + pi_d_a8_a1_proc_0 - pi_d_a2_a8_proc_2
      - pi_d_a2_a8_proc_1 - pi_d_a2_a8_proc_0 + pi_d_a8_a2_proc_2
      + pi_d_a8_a2_proc_1 + pi_d_a8_a2_proc_0 - pi_d_a3_a8_proc_1
      - pi_d_a3_a8_proc_0 + pi_d_a8_a3_proc_1 + pi_d_a8_a3_proc_0
      - pi_d_a4_a8_proc_2 - pi_d_a4_a8_proc_0 + pi_d_a8_a4_proc_2
      + pi_d_a8_a4_proc_0 - pi_d_a5_a8_proc_1 - pi_d_a5_a8_proc_0
      + pi_d_a8_a5_proc_1 + pi_d_a8_a5_proc_0 - pi_d_a6_a8_proc_2
      - pi_d_a6_a8_proc_1 - pi_d_a6_a8_proc_0 + pi_d_a8_a6_proc_2
      + pi_d_a8_a6_proc_1 + pi_d_a8_a6_proc_0 - pi_d_a7_a8_proc_2
      - pi_d_a7_a8_proc_1 - pi_d_a7_a8_proc_0 + pi_d_a8_a7_proc_2
      + pi_d_a8_a7_proc_1 + pi_d_a8_a7_proc_0 + pi_d_a8_a9_proc_2
      + pi_d_a8_a9_proc_1 - pi_d_a9_a8_proc_2 - pi_d_a9_a8_proc_1 >= 0
 c33: 1006 pi_p_a8_a0 + 1006 pi_d_a8_a0_proc_0 + 1006 pi_d_a8_a1_proc_0
      + 1006 pi_d_a8_a2_proc_0 + 1006 pi_d_a8_a3_proc_0 + 1006 pi_d_a8_a4_proc_0
      + 1006 pi_d_a8_a5_proc_0 + 1006 pi_d_a8_a6_proc_0 + 1006 pi_d_a8_a7_proc_0
      + pi_y1_a8 + pi_y2_a8_proc_0 >= 0
 c34: 575 pi_p_a8_a0 + 575 pi_d_a8_a0_proc_1 + 575 pi_d_a8_a1_proc_1
      + 575 pi_d_a8_a2_proc_1 + 575 pi_d_a8_a3_proc_1 + 575 pi_d_a8_a5_proc_1
      + 575 pi_d_a8_a6_proc_1 + 575 pi_d_a8_a7_proc_1 + 575 pi_d_a8_a9_proc_1
      + pi_y1_a8 + pi_y2_a8_proc_1 >= 0
 c35: 806 pi_p_a8_a0 + 806 pi_d_a8_a0_proc_2 + 806 pi_d_a8_a1_proc_2
      + 806 pi_d_a8_a2_proc_2 + 806 pi_d_a8_a4_proc_2 + 806 pi_d_a8_a6_proc_2
      + 806 pi_d_a8_a7_proc_2 + 806 pi_d_a8_a9_proc_2 + pi_y1_a8
      + pi_y2_a8_proc_2 >= 0
 c36: - pi_p_a5_a9 + pi_p_a9_a8 - pi_d_a0_a9_proc_2 - pi_d_a0_a9_proc_1
      + pi_d_a9_a0_proc_2 + pi_d_a9_a0_proc_1 - pi_d_a1_a9_proc_2
      - pi_d_a1_a9_proc_1 + pi_d_a9_a1_proc_2 + pi_d_a9_a1_proc_1
      - pi_d_a2_a9_proc_2 - pi_d_a2_a9_proc_1 + pi_d_a9_a2_proc_2
      + pi_d_a9_a2_proc_1 - pi_d_a3_a9_proc_1 + pi_d_a9_a3_proc_1
      - pi_d_a4_a9_proc_2 + pi_d_a9_a4_proc_2 - pi_d_a5_a9_proc_1
      + pi_d_a9_a5_proc_1 - pi_d_a6_a9_proc_2 - pi_d_a6_a9_proc_1
      + pi_d_a9_a6_proc_2 + pi_d_a9_a6_proc_1 - pi_d_a7_a9_proc_2
      - pi_d_a7_a9_proc_1 + pi_d_a9_a7_proc_2 + pi_d_a9_a7_proc_1
      - pi_d_a8_a9_proc_2 - pi_d_a8_a9_proc_1 + pi_d_a9_a8_proc_2
      + pi_d_a9_a8_proc_1 >= 0
 c37: 1026 pi_p_a9_a8 + 1026 pi_d_a9_a0_proc_1 + 1026 pi_d_a9_a1_proc_1
      + 1026 pi_d_a9_a2_proc_1 + 1026 pi_d_a9_a3_proc_1 + 1026 pi_d_a9_a5_proc_1
      + 1026 pi_d_a9_a6_proc_1 + 1026 pi_d_a9_a7_proc_1 + 1026 pi_d_a9_a8_proc_1
      + pi_y1_a9 + pi_y2_a9_proc_1 >= 0
 c38: 1099 pi_p_a9_a8 + 1099 pi_d_a9_a0_proc_2 + 1099 pi_d_a9_a1_proc_2
      + 1099 pi_d_a9_a2_proc_2 + 1099 pi_d_a9_a4_proc_2 + 1099 pi_d_a9_a6_proc_2
      + 1099 pi_d_a9_a7_proc_2 + 1099 pi_d_a9_a8_proc_2 + pi_y1_a9
      + pi_y2_a9_proc_2 >= 0

Bounds
       pi_y1_a0 Free
       pi_y1_a1 Free
       pi_y1_a2 Free
       pi_y1_a3 Free
       pi_y1_a4 Free
       pi_y1_a5 Free
       pi_y1_a6 Free
       pi_y1_a7 Free
       pi_y1_a8 Free
       pi_y1_a9 Free
End
