benchmark/results/graph__10-1000-0.10-03_12/graph__10-1000-0.10-03_12_QuintonOs_Benders_aux.txt
solution for: Quinton Bounded Benders_auxiliary_sub
objective: 0.000216169
status: OPTIMAL_SOLUTION(2)
pi_p_a1_a0=0.000
pi_p_a0_a2=0.000
pi_p_a2_a3=0.000
pi_p_a3_a4=0.000
pi_p_a7_a1=0.000
pi_p_a4_a7=0.000
pi_y1_a0=-0.161
pi_y1_a1=-0.141
pi_y1_a2=-0.145
pi_y1_a3=-0.208
pi_y1_a4=-0.265
pi_y1_a7=-0.079
